p cnf 100 20
-47 75 50 0
97 -31 -15 0
20 -57 -37 0
-14 19 2 0
-74 80 45 0
36 62 71 0
30 -22 76 0
-55 28 -34 0
50 -57 -46 0
-67 -49 60 0
-85 66 29 0
89 45 93 0
34 69 -36 0
51 81 12 0
69 -45 28 0
14 -51 62 0
67 -88 -64 0
-86 -80 -14 0
-61 52 -23 0
-67 94 -61 0
